
Gurobi 9.0.1 (linux64) logging started Thu Apr 30 05:57:40 2020

Gurobi Optimizer version 9.0.1 build v9.0.1rc0 (linux64)
Optimize a model with 896 rows, 990 columns and 6984 nonzeros
Model fingerprint: 0x95e04faf
Variable types: 0 continuous, 990 integer (980 binary)
Coefficient statistics:
  Matrix range     [1e+00, 5e+00]
  Objective range  [1e+00, 9e+01]
  Bounds range     [1e+00, 1e+00]
  RHS range        [1e+00, 1e+00]

User MIP start produced solution with objective 501 (0.00s)
Loaded user MIP start with objective 501

Presolve removed 260 rows and 384 columns
Presolve time: 0.06s
Presolved: 636 rows, 606 columns, 4806 nonzeros
Variable types: 0 continuous, 606 integer (598 binary)

Root relaxation: objective 3.910822e+02, 502 iterations, 0.02 seconds

    Nodes    |    Current Node    |     Objective Bounds      |     Work
 Expl Unexpl |  Obj  Depth IntInf | Incumbent    BestBd   Gap | It/Node Time

     0     0  391.08224    0  248  501.00000  391.08224  21.9%     -    0s
     0     0  408.23440    0  228  501.00000  408.23440  18.5%     -    0s
     0     0  408.92807    0  219  501.00000  408.92807  18.4%     -    0s
     0     0  408.92816    0  219  501.00000  408.92816  18.4%     -    0s
     0     0  416.25432    0  255  501.00000  416.25432  16.9%     -    0s
     0     0  418.75569    0  257  501.00000  418.75569  16.4%     -    0s
     0     0  419.20192    0  246  501.00000  419.20192  16.3%     -    0s
     0     0  419.20963    0  253  501.00000  419.20963  16.3%     -    0s
     0     0  425.14483    0  246  501.00000  425.14483  15.1%     -    0s
     0     0  425.64050    0  261  501.00000  425.64050  15.0%     -    0s
     0     0  425.70052    0  266  501.00000  425.70052  15.0%     -    0s
     0     0  425.70462    0  263  501.00000  425.70462  15.0%     -    0s
     0     0  432.81213    0  262  501.00000  432.81213  13.6%     -    0s
H    0     0                     494.0000000  432.81213  12.4%     -    0s
H    0     0                     488.0000000  432.81213  11.3%     -    0s
     0     0  433.58920    0  261  488.00000  433.58920  11.1%     -    0s
     0     0  433.64139    0  267  488.00000  433.64139  11.1%     -    0s
     0     0  433.66149    0  263  488.00000  433.66149  11.1%     -    0s
     0     0  436.07702    0  258  488.00000  436.07702  10.6%     -    0s
H    0     0                     487.0000000  436.07702  10.5%     -    0s
     0     0  436.47916    0  257  487.00000  436.47916  10.4%     -    0s
     0     0  436.73316    0  262  487.00000  436.73316  10.3%     -    0s
     0     0  436.76309    0  262  487.00000  436.76309  10.3%     -    0s
     0     0  436.76542    0  269  487.00000  436.76542  10.3%     -    0s
     0     0  439.14782    0  272  487.00000  439.14782  9.83%     -    1s
     0     0  439.46958    0  268  487.00000  439.46958  9.76%     -    1s
     0     0  439.47593    0  268  487.00000  439.47593  9.76%     -    1s
     0     0  440.62570    0  268  487.00000  440.62570  9.52%     -    1s
     0     0  440.63936    0  265  487.00000  440.63936  9.52%     -    1s
     0     0  441.35735    0  275  487.00000  441.35735  9.37%     -    1s
     0     0  441.51069    0  276  487.00000  441.51069  9.34%     -    1s
     0     0  441.51634    0  275  487.00000  441.51634  9.34%     -    1s
     0     0  441.51868    0  276  487.00000  441.51868  9.34%     -    1s
     0     0  441.51868    0  276  487.00000  441.51868  9.34%     -    1s
     0     0  441.63891    0  248  487.00000  441.63891  9.31%     -    1s
     0     0  441.63891    0  237  487.00000  441.63891  9.31%     -    1s
     0     0  441.63891    0  257  487.00000  441.63891  9.31%     -    1s
     0     0  441.63891    0  250  487.00000  441.63891  9.31%     -    1s
     0     0  441.63891    0  258  487.00000  441.63891  9.31%     -    1s
     0     0  441.63891    0  255  487.00000  441.63891  9.31%     -    1s
     0     0  441.63891    0  256  487.00000  441.63891  9.31%     -    1s
     0     0  442.54718    0  269  487.00000  442.54718  9.13%     -    1s
     0     0  442.91925    0  268  487.00000  442.91925  9.05%     -    1s
     0     0  443.02658    0  270  487.00000  443.02658  9.03%     -    2s
     0     0  443.03194    0  273  487.00000  443.03194  9.03%     -    2s
     0     0  444.85807    0  268  487.00000  444.85807  8.65%     -    2s
     0     0  445.29281    0  265  487.00000  445.29281  8.56%     -    2s
     0     0  445.40176    0  265  487.00000  445.40176  8.54%     -    2s
     0     0  445.41089    0  275  487.00000  445.41089  8.54%     -    2s
     0     0  446.03580    0  273  487.00000  446.03580  8.41%     -    2s
     0     0  446.09743    0  278  487.00000  446.09743  8.40%     -    2s
     0     0  446.13349    0  277  487.00000  446.13349  8.39%     -    2s
     0     0  446.53538    0  271  487.00000  446.53538  8.31%     -    2s
     0     0  446.56538    0  280  487.00000  446.56538  8.30%     -    2s
     0     0  446.96154    0  276  487.00000  446.96154  8.22%     -    2s
     0     2  446.97755    0  276  487.00000  446.97755  8.22%     -    2s
H   27    19                     486.0000000  449.39129  7.53%   136    3s
H  109    33                     482.0000000  451.48930  6.33%   101    3s
H  128    37                     472.0000000  454.86779  3.63%  95.5    3s
*  149    34              20     471.0000000  456.02900  3.18%  86.2    3s

Cutting planes:
  Gomory: 2
  Cover: 1
  MIR: 16
  Zero half: 38
  RLT: 178

Explored 319 nodes (25973 simplex iterations) in 4.50 seconds
Thread count was 1 (of 40 available processors)

Solution count 8: 471 472 482 ... 501

Optimal solution found (tolerance 1.00e-04)
Best objective 4.710000000000e+02, best bound 4.710000000000e+02, gap 0.0000%

User-callback calls 1862, time in user-callback 0.00 sec
